20	5
0	5	4	7	2	1	5
1	1	13
2	1	17
3	1	15
4	2	17	7
5	3	12	16	19
6	1	8
7	0
8	1	11
9	0
10	2	14	16
11	0
12	2	20	9
13	2	19	10
14	1	12
15	1	21
16	1	21
17	1	21
18	1	21
19	1	21
20	1	21
21	0
0	0	0	0	0	0	0
1	8	2	2	1	2	4
2	5	3	2	4	2	5
3	7	2	2	4	5	4
4	10	1	3	1	1	2
5	7	3	1	2	5	1
6	2	4	2	2	4	4
7	7	4	2	5	5	3
8	4	5	5	3	1	2
9	3	3	5	3	3	2
10	10	4	3	4	2	2
11	8	4	2	1	2	4
12	9	5	2	1	4	1
13	2	5	2	2	5	1
14	6	4	5	3	3	2
15	6	4	2	1	1	3
16	3	2	3	5	3	2
17	1	5	2	5	2	2
18	3	3	3	2	4	3
19	4	2	4	4	2	1
20	7	4	2	1	4	2
21	0	0	0	0	0	0
9	8	9	10	10
